2	23	1	8	29	100	0	0	0	0	0	0
800	1	0	0	0	0	0	0	0	0	0	0
800	1	0	0	0	0	0	0	0	0	0	0
100	1	0	65.48	0.46	1	0	0	0	0	0	0
100	1	0	65.48	0.46	1	0	0	0	0	0	0
100	1	0	65.48	0.46	1	0	0	0	0	0	0
100	1	0	65.48	0.46	1	0	0	0	0	0	0
100	1	0	65.48	0.46	1	0	0	0	0	0	0
100	1	0	65.48	0.46	1	0	0	0	0	0	0
100	1	0	65.48	0.46	1	0	0	0	0	0	0
100	1	0	65.48	0.46	1	0	0	0	0	0	0
100	1	0	65.48	0.46	1	0	0	0	0	0	0
100	1	0	65.48	0.46	1	0	0	0	0	0	0
100	1	0	65.48	0.46	1	0	0	0	0	0	0
100	1	0	65.48	0.46	1	0	0	0	0	0	0
100	1	0	65.48	0.46	1	0	0	0	0	0	0
100	1	0	65.48	0.46	1	0	0	0	0	0	0
100	1	0	65.48	0.46	1	0	0	0	0	0	0
100	1	0	65.48	0.46	1	0	0	0	0	0	0
100	1	0	65.48	0.46	1	0	0	0	0	0	0
100	1	0	65.48	0.46	1	0	0	0	0	0	0
100	1	0	65.48	0.46	1	0	0	0	0	0	0
100	1	0	65.48	0.46	1	0	0	0	0	0	0
100	1	0	65.48	0.46	1	0	0	0	0	0	0
100	1	0	65.48	0.46	1	0	0	0	0	0	0
100	1	0	65.48	0.46	1	0	0	0	0	0	0
50	150	0	0	0	0	230	0	0	99999	0	0
25	25	0	0	0	0	230	0	0	99999	0	0
50	25	0	0	0	0	230	0	0	99999	0	0
75	25	0	0	0	0	230	0	0	99999	0	0
25	50	0	0	0	0	230	0	0	99999	0	0
75	50	0	0	0	0	230	0	0	99999	0	0
25	75	0	0	0	0	230	0	0	99999	0	0
50	75	0	0	0	0	230	0	0	99999	0	0
75	75	0	0	0	0	230	0	0	99999	0	0
25	25	0	0	0	0	230	0	0	0	0	0
50	25	0	0	0	0	230	0	0	0	0	0
75	25	0	0	0	0	230	0	0	0	0	0
25	50	0	0	0	0	230	0	0	0	0	0
75	50	0	0	0	0	230	0	0	0	0	0
25	75	0	0	0	0	230	0	0	0	0	0
50	75	0	0	0	0	230	0	0	0	0	0
75	75	0	0	0	0	230	0	0	0	0	0
35      35      0       0       0       0       230     0       0       0       0       0
61      37      0       0       0       0       230     0       0       0       0       0
74      39      0       0       0       0       230     0       0       0       0       0
47      57      0       0       0       0       230     0       0       0       0       0
57      65      0       0       0       0       230     0       0       0       0       0
29      59      0       0       0       0       230     0       0       0       0       0
34      71      0       0       0       0       230     0       0       0       0       0
22      58      0       0       0       0       230     0       0       0       0       0
7	61	0	0	0	0	230	0	0	0	0	0
18	41	0	0	0	0	230	0	0	0	0	0
5	39	0	0	0	0	230	0	0	0	0	0
14	20	0	0	0	0	230	0	0	0	0	0
0	26	0	0	0	0	230	0	0	0	0	0
24	25	0	0	0	0	230	0	0	0	0	0
26	6	0	0	0	0	230	0	0	0	0	0
34	20	0	0	0	0	230	0	0	0	0	0
41	5	0	0	0	0	230	0	0	0	0	0
50	9	0	0	0	0	230	0	0	0	0	0
61	14	0	0	0	0	230	0	0	0	0	0
62	21	0	0	0	0	230	0	0	0	0	0
74	30	0	0	0	0	230	0	0	0	0	0
41	49	10	8	2	132	235	10	0	0	0	0
35	17	7	3	4	151	285	10	0	0	0	0
55	45	13	11	2	139	303	10	0	0	0	0
55	20	19	7	12	179	277	10	0	0	0	0
15	30	26	13	13	174	315	10	0	0	0	0
25	30	3	3	0	148	284	10	0	0	0	0
20	50	5	2	3	159	259	10	0	0	0	0
10	43	9	2	7	143	265	10	0	0	0	0
55	60	16	15	1	172	303	10	0	0	0	0
30	60	16	8	8	196	310	10	0	0	0	0
20	65	12	4	8	179	299	10	0	0	0	0
50	35	19	13	6	219	321	10	0	0	0	0
30	25	23	19	4	203	324	10	0	0	0	0
15	10	20	13	7	149	274	10	0	0	0	0
30	5	8	1	7	181	289	10	0	0	0	0
10	20	19	10	9	146	275	10	0	0	0	0
5	30	2	0	2	147	259	10	0	0	0	0
20	40	12	6	6	191	305	10	0	0	0	0
15	60	17	4	13	178	303	10	0	0	0	0
45	65	9	6	3	148	253	10	0	0	0	0
45	20	11	5	6	135	268	10	0	0	0	0
45	10	18	4	14	143	264	10	0	0	0	0
55	5	29	3	26	164	299	10	0	0	0	0
65	35	3	2	1	191	306	10	0	0	0	0
65	20	6	2	4	164	281	10	0	0	0	0
45	30	17	11	6	204	324	10	0	0	0	0
35	40	16	14	2	182	331	10	0	0	0	0
41	37	16	14	2	200	329	10	0	0	0	0
64	42	9	6	3	180	296	10	0	0	0	0
40	60	21	14	7	196	310	10	0	0	0	0
31	52	27	16	11	134	304	10	0	0	0	0
35	69	23	12	11	182	302	10	0	0	0	0
53	52	11	11	0	141	281	10	0	0	0	0
65	55	14	12	2	174	299	10	0	0	0	0
63	65	8	8	0	171	294	10	0	0	0	0
2	60	5	0	5	175	294	10	0	0	0	0
20	20	8	8	0	165	314	10	0	0	0	0
5	5	16	16	0	172	293	10	0	0	0	0
60	12	31	6	25	166	302	10	0	0	0	0
40	25	9	6	3	128	236	10	0	0	0	0
42	7	5	1	4	182	307	10	0	0	0	0
24	12	5	3	2	209	310	10	0	0	0	0
23	3	7	1	6	159	301	10	0	0	0	0
11	14	18	14	4	176	304	10	0	0	0	0
6	38	16	3	13	155	306	10	0	0	0	0
2	48	1	0	1	172	300	10	0	0	0	0
8	56	27	4	23	169	301	10	0	0	0	0
13	52	36	9	27	178	308	10	0	0	0	0
6	68	30	3	27	174	292	10	0	0	0	0
47	47	13	13	0	186	292	10	0	0	0	0
49	58	10	8	2	184	309	10	0	0	0	0
27	43	9	6	3	162	302	10	0	0	0	0
37	31	14	12	2	207	331	10	0	0	0	0
57	29	18	9	9	149	269	10	0	0	0	0
63	23	2	1	1	147	293	10	0	0	0	0
53	12	6	1	5	146	282	10	0	0	0	0
32	12	7	3	4	193	312	10	0	0	0	0
36	26	18	13	5	174	292	10	0	0	0	0
21	24	28	25	3	162	282	10	0	0	0	0
17	34	3	2	1	135	262	10	0	0	0	0
12	24	13	7	6	142	310	10	0	0	0	0
24	58	19	8	11	142	264	10	0	0	0	0
27	69	10	4	6	163	301	10	0	0	0	0
15	77	9	2	7	175	280	10	0	0	0	0
62	77	20	16	4	184	286	10	0	0	0	0
49	73	25	17	8	169	295	10	0	0	0	0
67	5	25	2	23	176	292	10	0	0	0	0
56	39	36	25	11	138	272	10	0	0	0	0
37	47	6	5	1	201	323	10	0	0	0	0
37	56	5	3	2	138	247	10	0	0	0	0
57	68	15	13	2	193	296	10	0	0	0	0
47	16	25	9	16	165	299	10	0	0	0	0
44	17	9	3	6	206	308	10	0	0	0	0
46	13	8	2	6	141	249	10	0	0	0	0
49	11	18	4	14	144	253	10	0	0	0	0
49	42	13	11	2	195	320	10	0	0	0	0
53	43	14	11	3	187	316	10	0	0	0	0
61	52	3	3	0	148	298	10	0	0	0	0
57	48	23	19	4	150	272	10	0	0	0	0
56	37	6	4	2	159	299	10	0	0	0	0
55	54	26	26	0	144	259	10	0	0	0	0
15	47	16	5	11	199	312	10	0	0	0	0
14	37	11	4	7	188	314	10	0	0	0	0
11	31	7	2	5	154	280	10	0	0	0	0
16	22	41	30	11	140	296	10	0	0	0	0
4	18	35	8	27	205	300	10	0	0	0	0
28	18	26	17	9	237	317	10	0	0	0	0
26	52	9	5	4	183	316	10	0	0	0	0
26	35	15	11	4	125	259	10	0	0	0	0
31	67	3	1	2	182	294	10	0	0	0	0
15	19	1	1	0	142	279	10	0	0	0	0
22	22	2	2	0	169	317	10	0	0	0	0
18	24	22	17	5	185	283	10	0	0	0	0
26	27	27	26	1	208	323	10	0	0	0	0
25	24	20	19	1	179	321	10	0	0	0	0
22	27	11	9	2	132	229	10	0	0	0	0
25	21	12	10	2	215	311	10	0	0	0	0
19	21	10	9	1	166	284	10	0	0	0	0
20	26	9	7	2	206	312	10	0	0	0	0
18	18	17	17	0	172	246	10	0	0	0	0
